50
16104

965.0 865
495.0 395
877.0 777
1012.0 912
531.0 431
142.0 42
366.0 266
1089.0 989
624.0 524
598.0 498
515.0 415
1041.0 941
903.0 803
950.0 850
411.0 311
1092.0 992
589.0 489
467.0 367
698.0 598
1014.0 914
1030.0 930
324.0 224
617.0 517
243.0 143
389.0 289
244.0 144
874.0 774
198.0 98
734.0 634
919.0 819
357.0 257
1032.0 932
646.0 546
823.0 723
930.0 830
717.0 617
1024.0 924
251.0 151
418.0 318
202.0 102
848.0 748
176.0 76
1021.0 921
971.0 871
801.0 701
439.0 339
584.0 484
674.0 574
204.0 104
463.0 363
